c SAT problem
p wcnf 383 2390
1 -60 -3165 0
1 60 61 0
1 -75 -3150 0
1 75 -60 0
1 75 3165 0
1 -90 -3105 0
1 -90 -3075 0
1 90 105 0
1 -90 91 0
1 105 3150 0
1 -105 3120 0
1 105 3060 0
1 -105 3165 0
1 3120 165 0
1 3120 75 0
1 3135 -3136 0
1 3135 196 0
1 3135 -135 0
1 -3135 -181 0
1 -3135 60 0
1 3150 196 0
1 -3150 181 0
1 3150 -3165 0
1 3165 166 0
1 -3165 136 0
1 -3165 181 0
1 3165 -121 0
1 -3165 60 0
1 -120 -3105 0
1 -120 3075 0
1 120 -135 0
1 -120 -3060 0
1 120 -3135 0
1 135 3105 0
1 -135 3075 0
1 -135 -136 0
1 -135 3120 0
1 150 -3045 0
1 150 -3030 0
1 -150 -3000 0
1 -150 3135 0
1 -165 -3075 0
1 -165 -3120 0
1 -165 -3060 0
1 -165 150 0
1 -165 -3135 0
1 -3060 3075 0
1 3060 165 0
1 3060 -105 0
1 3060 -240 0
1 3060 210 0
1 -3060 3061 0
1 -3060 -150 0
1 3060 -120 0
1 3075 -165 0
1 -3075 135 0
1 -3075 -105 0
1 3075 240 0
1 -3075 -210 0
1 -3075 -120 0
1 3075 90 0
1 3090 135 0
1 -3090 -240 0
1 -3090 -3091 0
1 3090 120 0
1 3090 255 0
1 3105 -3106 0
1 3105 -3090 0
1 3105 -211 0
1 -3105 181 0
1 -3105 -255 0
1 -180 -195 0
1 -180 3075 0
1 180 3045 0
1 -180 3015 0
1 180 -181 0
1 180 3030 0
1 -180 3000 0
1 -195 3075 0
1 195 -3030 0
1 210 225 0
1 210 -3075 0
1 -210 3015 0
1 210 3060 0
1 -210 3030 0
1 210 -3000 0
1 225 226 0
1 225 -3075 0
1 -225 3030 0
1 -225 3000 0
1 3000 165 0
1 3000 -300 0
1 3000 -150 0
1 3000 3001 0
1 3000 315 0
1 3015 165 0
1 3015 3016 0
1 3015 -210 0
1 3015 150 0
1 3030 225 0
1 -3030 165 0
1 3030 3045 0
1 -3030 270 0
1 -3030 240 0
1 -3030 -180 0
1 3030 150 0
1 3030 285 0
1 3045 -195 0
1 -3045 -300 0
1 3045 210 0
1 -3045 180 0
1 3045 -285 0
1 -61 -3330 0
1 61 3315 0
1 -76 -3300 0
1 76 75 0
1 76 -3345 0
1 76 -61 0
1 -91 3300 0
1 -91 -3270 0
1 -91 3345 0
1 -91 -3255 0
1 -91 -90 0
1 -91 92 0
1 106 3330 0
1 -106 3270 0
1 106 105 0
1 -106 107 0
1 -106 -3345 0
1 -106 -3315 0
1 106 -3285 0
1 -106 3255 0
1 -3300 -197 0
1 -3300 3301 0
1 3300 -76 0
1 3300 182 0
1 3300 -151 0
1 3300 -121 0
1 -3300 91 0
1 -3300 -61 0
1 3315 3300 0
1 -3315 166 0
1 -3315 136 0
1 -3315 106 0
1 3315 76 0
1 3315 121 0
1 -3330 167 0
1 -3330 137 0
1 3330 76 0
1 -3330 -3345 0
1 -3330 152 0
1 -3330 -122 0
1 -3330 91 0
1 3345 3330 0
1 -3345 -197 0
1 3345 167 0
1 -3345 -122 0
1 3345 91 0
1 -121 -3240 0
1 121 3150 0
1 -121 -3315 0
1 -121 -3285 0
1 136 -3270 0
1 136 -3240 0
1 -136 -3150 0
1 -136 3315 0
1 136 3255 0
1 -151 -3270 0
1 -151 -3240 0
1 151 -3315 0
1 -151 3255 0
1 -151 -3225 0
1 -151 -3165 0
1 -166 -165 0
1 166 -3210 0
1 -166 -3180 0
1 -166 -3315 0
1 -166 3285 0
1 3240 256 0
1 3240 -196 0
1 3240 -166 0
1 3240 -136 0
1 3240 211 0
1 3240 -121 0
1 -3240 -91 0
1 3255 196 0
1 -3255 106 0
1 -3255 -241 0
1 3255 151 0
1 3255 91 0
1 -3270 256 0
1 3270 166 0
1 3270 3271 0
1 3270 -3285 0
1 3270 182 0
1 3270 151 0
1 -3270 -121 0
1 3270 91 0
1 -3285 197 0
1 -3285 -166 0
1 -3285 3270 0
1 -3285 -136 0
1 3285 91 0
1 -181 3105 0
1 -181 3240 0
1 -181 3180 0
1 -181 3150 0
1 -181 3120 0
1 181 180 0
1 -181 -3255 0
1 -181 -3225 0
1 181 -3195 0
1 -181 3165 0
1 181 3135 0
1 196 195 0
1 196 -197 0
1 196 3120 0
1 -196 -3255 0
1 -196 -3225 0
1 -196 3135 0
1 211 3136 0
1 -211 -3240 0
1 211 3210 0
1 -211 3180 0
1 211 -3151 0
1 -211 -3121 0
1 211 -210 0
1 211 -3255 0
1 211 -3225 0
1 -211 3166 0
1 226 3105 0
1 -226 227 0
1 226 -3240 0
1 226 -3210 0
1 226 3180 0
1 -226 3121 0
1 -226 -211 0
1 226 3255 0
1 -226 3225 0
1 226 -3166 0
1 -3180 196 0
1 3180 301 0
1 -3180 -270 0
1 -3180 240 0
1 -3180 -211 0
1 -3180 -181 0
1 3180 -255 0
1 3195 -196 0
1 3195 166 0
1 -3195 -3180 0
1 -3195 240 0
1 3195 151 0
1 3210 -256 0
1 3210 -301 0
1 3210 241 0
1 3210 181 0
1 -3210 -3225 0
1 -3210 316 0
1 3225 -256 0
1 3225 226 0
1 3225 -196 0
1 -3225 166 0
1 -3225 -3210 0
1 -3225 -301 0
1 -3225 -181 0
1 -240 -3105 0
1 -240 3045 0
1 -240 -3030 0
1 -240 -3166 0
1 -240 -255 0
1 255 -3136 0
1 -255 3180 0
1 -255 3121 0
1 -255 -3090 0
1 255 3060 0
1 -255 -3030 0
1 -270 -3136 0
1 270 3180 0
1 -270 -271 0
1 -270 3091 0
1 270 -3061 0
1 270 3166 0
1 285 -3136 0
1 -285 3106 0
1 -285 3076 0
1 -285 3045 0
1 285 3151 0
1 -285 -3121 0
1 285 3091 0
1 -285 -3061 0
1 285 -3195 0
1 -285 -286 0
1 -3121 3136 0
1 -3121 226 0
1 3121 361 0
1 -3121 -300 0
1 3121 -270 0
1 3121 -315 0
1 -3121 -255 0
1 3136 226 0
1 3136 -361 0
1 3136 -3121 0
1 3136 -315 0
1 -3136 285 0
1 -3151 226 0
1 -3151 331 0
1 3151 301 0
1 3151 240 0
1 3151 -211 0
1 3151 316 0
1 -3151 -3166 0
1 3151 255 0
1 3166 226 0
1 -3166 361 0
1 3166 270 0
1 -3166 240 0
1 3166 211 0
1 -3166 3165 0
1 -3166 -316 0
1 3166 -255 0
1 300 3106 0
1 300 -3076 0
1 -300 -3091 0
1 -300 3061 0
1 300 -3000 0
1 300 315 0
1 315 -3136 0
1 -315 3106 0
1 315 -3045 0
1 315 3030 0
1 -330 -3106 0
1 330 -3046 0
1 -330 3016 0
1 330 -3121 0
1 -345 3106 0
1 -345 -3046 0
1 -345 3016 0
1 -345 3121 0
1 -345 3091 0
1 -345 -346 0
1 3061 -390 0
1 3061 330 0
1 -3061 -270 0
1 3061 -3060 0
1 -3061 -405 0
1 3061 3062 0
1 3061 375 0
1 -3061 345 0
1 3061 315 0
1 3061 -285 0
1 3076 -3077 0
1 3076 390 0
1 -3076 -330 0
1 -3076 300 0
1 -3076 270 0
1 3076 -435 0
1 3076 -405 0
1 -3076 3061 0
1 3076 345 0
1 3076 -315 0
1 3091 420 0
1 -3091 -391 0
1 -3091 361 0
1 -3091 330 0
1 -3091 -300 0
1 3091 -435 0
1 -3091 406 0
1 3091 376 0
1 -3091 345 0
1 -3091 285 0
1 -3106 3105 0
1 -3106 3107 0
1 -3106 391 0
1 -3106 300 0
1 3106 3091 0
1 3106 285 0
1 -360 -3076 0
1 360 -3016 0
1 360 -361 0
1 360 375 0
1 -375 -3076 0
1 375 -3046 0
1 -375 -376 0
1 -390 -3046 0
1 -390 391 0
1 -390 405 0
1 390 3001 0
1 -405 -3076 0
1 -405 -406 0
1 -405 3001 0
1 3001 480 0
1 3001 -360 0
1 -3001 -330 0
1 3001 -495 0
1 3001 -405 0
1 -3016 390 0
1 3016 -3017 0
1 -3016 -495 0
1 3016 -345 0
1 -3016 -3001 0
1 -3031 450 0
1 3031 390 0
1 3031 -330 0
1 3031 -495 0
1 3031 -465 0
1 3031 -435 0
1 -3031 -375 0
1 -3031 345 0
1 -3046 450 0
1 -3046 -420 0
1 3046 3045 0
1 3046 390 0
1 -3046 -3047 0
1 3046 -435 0
1 -3046 -405 0
1 -3046 -345 0
1 -62 -77 0
1 62 3480 0
1 77 3525 0
1 -77 -3495 0
1 -77 76 0
1 -77 78 0
1 92 3525 0
1 -92 3435 0
1 -92 -3510 0
1 -92 -3480 0
1 -92 3450 0
1 92 -3420 0
1 92 -93 0
1 -107 106 0
1 -107 3435 0
1 -107 -108 0
1 3480 198 0
1 -3480 -137 0
1 3480 107 0
1 3480 -77 0
1 -3480 183 0
1 -3480 -152 0
1 3480 -92 0
1 -3495 -198 0
1 -3495 167 0
1 3495 3496 0
1 -3495 -107 0
1 -3495 -77 0
1 3510 -168 0
1 3510 -138 0
1 3510 -107 0
1 3525 -198 0
1 -3525 -3526 0
1 -3525 168 0
1 -3525 138 0
1 -3525 -107 0
1 -3525 -77 0
1 -3525 -3510 0
1 3525 -153 0
1 3525 -123 0
1 -3525 -62 0
1 122 3330 0
1 122 -3495 0
1 122 -137 0
1 122 -3435 0
1 122 -3345 0
1 -122 -3480 0
1 122 -121 0
1 122 -123 0
1 122 3420 0
1 -137 136 0
1 137 3465 0
1 137 138 0
1 137 3450 0
1 137 -3345 0
1 -137 122 0
1 -137 3420 0
1 -152 167 0
1 -152 3495 0
1 152 3405 0
1 152 3345 0
1 152 153 0
1 -152 3390 0
1 -167 -3480 0
1 167 3495 0
1 -167 168 0
1 167 -3465 0
1 -167 -152 0
1 167 3420 0
1 -3420 227 0
1 3420 197 0
1 3420 137 0
1 -3420 -242 0
1 3420 212 0
1 3420 -122 0
1 -3420 92 0
1 3435 257 0
1 -3435 -107 0
1 3435 -242 0
1 3435 -212 0
1 -3435 -182 0
1 3435 -122 0
1 -3435 92 0
1 -3450 228 0
1 -3450 242 0
1 3450 -152 0
1 -3450 3451 0
1 3450 92 0
1 -3465 -257 0
1 -3465 198 0
1 3465 167 0
1 3465 -137 0
1 -3465 -3466 0
1 3465 -242 0
1 -3465 -213 0
1 3465 -152 0
1 -3465 -122 0
1 -3465 -92 0
1 -182 -3330 0
1 182 -197 0
1 -182 3435 0
1 182 3405 0
1 -182 3375 0
1 -182 -3345 0
1 -182 3285 0
1 182 -183 0
1 -182 -3420 0
1 197 -3360 0
1 197 -3330 0
1 197 -196 0
1 -197 -3300 0
1 -197 -198 0
1 -197 3435 0
1 -197 3375 0
1 -197 3345 0
1 197 3315 0
1 -197 3420 0
1 -197 -3390 0
1 -212 -3331 0
1 -212 3301 0
1 -212 3375 0
1 212 211 0
1 -212 3390 0
1 -227 -3360 0
1 -227 -228 0
1 -227 -3301 0
1 227 -3346 0
1 -227 -3285 0
1 -227 3420 0
1 227 3390 0
1 3360 256 0
1 -3360 167 0
1 3360 302 0
1 3360 212 0
1 -3360 152 0
1 -3360 317 0
1 -3375 227 0
1 3375 197 0
1 3375 167 0
1 -3375 3376 0
1 3375 241 0
1 3375 -212 0
1 3375 182 0
1 -3375 -152 0
1 -3375 286 0
1 -3390 3391 0
1 3390 -167 0
1 3390 3405 0
1 3390 -302 0
1 3390 272 0
1 -3390 212 0
1 -3390 -182 0
1 3390 152 0
1 3390 287 0
1 -3405 167 0
1 -3405 302 0
1 3405 272 0
1 3405 -212 0
1 -3405 -182 0
1 -3405 -152 0
1 -3405 317 0
1 3405 -3390 0
1 -241 -256 0
1 241 3270 0
1 -241 3210 0
1 241 -240 0
1 -241 242 0
1 241 3225 0
1 -256 -3301 0
1 256 -3210 0
1 256 3375 0
1 256 241 0
1 -256 -3346 0
1 -256 -3316 0
1 256 3285 0
1 -256 -3225 0
1 271 -3360 0
1 271 -3331 0
1 -271 -270 0
1 -271 -3375 0
1 -271 -3346 0
1 271 3286 0
1 -271 3225 0
1 286 -3360 0
1 -286 -3331 0
1 -286 3301 0
1 -286 -3271 0
1 286 -3210 0
1 -286 -3286 0
1 286 -3256 0
1 -286 285 0
1 -3301 256 0
1 3301 227 0
1 -3301 -362 0
1 -3301 331 0
1 -3301 3316 0
1 3301 -377 0
1 3301 -346 0
1 -3316 256 0
1 3316 227 0
1 3316 -3301 0
1 3316 -362 0
1 -3316 331 0
1 -3316 301 0
1 -3316 -271 0
1 3316 -241 0
1 -3316 3315 0
1 -3316 212 0
1 3316 3317 0
1 -3316 -316 0
1 -3331 -3330 0
1 -3331 227 0
1 -3331 -302 0
1 -3331 -271 0
1 3331 -377 0
1 -3331 286 0
1 -3346 -256 0
1 3346 -227 0
1 -3346 3331 0
1 -3346 -302 0
1 3346 -241 0
1 3346 3345 0
1 -3346 317 0
1 -301 -3301 0
1 301 3241 0
1 301 -300 0
1 301 3286 0
1 -301 3225 0
1 301 -316 0
1 301 -3166 0
1 -316 -3301 0
1 316 3241 0
1 -316 3195 0
1 316 -301 0
1 316 3151 0
1 -316 317 0
1 -331 3226 0
1 -331 -3271 0
1 331 -330 0
1 -331 -3151 0
1 331 -3316 0
1 -331 3256 0
1 331 346 0
1 -331 3166 0
1 346 -3301 0
1 346 3181 0
1 346 -3316 0
1 -346 -3286 0
1 -346 3256 0
1 -346 -3226 0
1 -346 -347 0
1 346 3196 0
1 3241 -391 0
1 3241 -301 0
1 3241 271 0
1 3241 346 0
1 -3241 -286 0
1 3256 361 0
1 3256 -331 0
1 3256 -301 0
1 -3256 -436 0
1 3256 406 0
1 3256 -3255 0
1 -3256 376 0
1 -3256 3257 0
1 -3271 421 0
1 -3271 -3270 0
1 -3271 -362 0
1 -3271 301 0
1 -3271 -436 0
1 3271 -377 0
1 -3271 -346 0
1 3286 392 0
1 3286 301 0
1 3286 -436 0
1 -3286 -3285 0
1 -3286 -407 0
1 -3286 -286 0
1 -361 -3136 0
1 361 -3106 0
1 361 362 0
1 -361 -3091 0
1 -361 -376 0
1 -361 -3196 0
1 361 3166 0
1 376 3136 0
1 376 -3106 0
1 -376 -361 0
1 376 3181 0
1 376 375 0
1 376 377 0
1 -376 3226 0
1 -376 3196 0
1 391 -3137 0
1 -391 3106 0
1 -391 390 0
1 391 392 0
1 391 3211 0
1 -391 -3181 0
1 391 3152 0
1 391 3122 0
1 -391 -3226 0
1 -391 -3167 0
1 -406 3106 0
1 -406 -3181 0
1 406 3152 0
1 -406 3122 0
1 406 3091 0
1 406 405 0
1 -3181 -481 0
1 3181 450 0
1 -3181 -391 0
1 -3181 -361 0
1 3181 -331 0
1 3181 -3182 0
1 3181 496 0
1 -3181 435 0
1 -3181 -406 0
1 -3181 -346 0
1 3196 420 0
1 3196 391 0
1 -3196 -331 0
1 3196 3181 0
1 3196 -496 0
1 -3196 465 0
1 3196 -435 0
1 3196 3195 0
1 -3211 -451 0
1 3211 -3226 0
1 -3211 -361 0
1 -3211 3212 0
1 -3211 -436 0
1 -3211 346 0
1 3226 -481 0
1 3226 -421 0
1 -3226 -361 0
1 3226 496 0
1 3226 -466 0
1 3226 -436 0
1 3226 406 0
1 3226 -3225 0
1 -3226 346 0
1 -420 -3137 0
1 -420 -3106 0
1 420 -3046 0
1 420 -435 0
1 -420 3091 0
1 -420 -3031 0
1 420 3196 0
1 435 3137 0
1 -435 420 0
1 435 -3091 0
1 435 436 0
1 -435 3061 0
1 -435 -3031 0
1 450 451 0
1 450 -3107 0
1 450 -3077 0
1 450 3046 0
1 450 3181 0
1 -450 3092 0
1 450 -3167 0
1 465 450 0
1 -465 -3077 0
1 -465 -3152 0
1 -465 3122 0
1 -465 -3062 0
1 465 -3031 0
1 465 3196 0
1 3122 -480 0
1 -3122 391 0
1 3122 -556 0
1 -3122 -495 0
1 -3122 3121 0
1 -3122 -435 0
1 3122 -3123 0
1 -3122 -406 0
1 -3122 -541 0
1 -3137 -556 0
1 -3137 3122 0
1 3137 406 0
1 -3137 -541 0
1 3137 -510 0
1 3152 481 0
1 3152 -450 0
1 -3152 -556 0
1 3152 435 0
1 -3167 -481 0
1 3167 450 0
1 -3167 -391 0
1 -3167 556 0
1 -3167 -526 0
1 -3167 496 0
1 -3167 -511 0
1 -480 -481 0
1 480 -3137 0
1 -480 -3077 0
1 -480 3092 0
1 -480 3062 0
1 480 -3001 0
1 495 3107 0
1 495 -3077 0
1 495 -3122 0
1 -495 3092 0
1 -495 -3062 0
1 495 3001 0
1 -510 3077 0
1 510 -3017 0
1 -510 -3122 0
1 -510 -3092 0
1 -510 -3062 0
1 510 3002 0
1 -510 511 0
1 525 3107 0
1 525 -3047 0
1 -525 -3017 0
1 -525 -3002 0
1 525 510 0
1 3062 480 0
1 3062 525 0
1 3062 -495 0
1 3062 -465 0
1 3062 -3061 0
1 -3062 600 0
1 -3062 -570 0
1 -3077 615 0
1 3077 585 0
1 3077 -555 0
1 -3077 -525 0
1 -3077 495 0
1 -3077 465 0
1 -3077 570 0
1 -3077 540 0
1 -3077 510 0
1 3092 -480 0
1 3092 450 0
1 3092 615 0
1 3092 556 0
1 -3092 3091 0
1 3092 600 0
1 -3092 571 0
1 3107 480 0
1 3107 450 0
1 3107 -586 0
1 3107 556 0
1 3107 525 0
1 -3107 -495 0
1 3107 -465 0
1 3107 571 0
1 540 -3077 0
1 540 3047 0
1 -540 555 0
1 540 3032 0
1 540 3002 0
1 555 3047 0
1 555 -3017 0
1 555 -556 0
1 570 -3077 0
1 570 -585 0
1 -570 3017 0
1 -570 3032 0
1 -585 3002 0
1 -585 -3047 0
1 -585 3032 0
1 -585 570 0
1 3002 -585 0
1 3002 555 0
1 3002 570 0
1 3002 540 0
1 -3017 675 0
1 3017 -585 0
1 -3017 3018 0
1 -3032 615 0
1 -3032 3047 0
1 -3032 585 0
1 3032 660 0
1 -3032 630 0
1 -3032 -600 0
1 -3032 3033 0
1 -3047 675 0
1 3047 3046 0
1 -3047 585 0
1 -3047 -3032 0
1 3047 570 0
1 -3047 540 0
1 63 -3690 0
1 63 3660 0
1 -63 3705 0
1 63 3675 0
1 -78 -3690 0
1 78 3660 0
1 78 -3675 0
1 -78 63 0
1 -93 3690 0
1 93 3630 0
1 93 3600 0
1 93 3675 0
1 -108 -3690 0
1 -108 107 0
1 -108 -3660 0
1 -3660 -138 0
1 -3660 -123 0
1 3660 93 0
1 -3660 63 0
1 -3675 -138 0
1 3675 108 0
1 -3675 3660 0
1 3675 -78 0
1 -3675 -153 0
1 3675 3676 0
1 -3675 -63 0
1 -3690 -108 0
1 3690 3691 0
1 -3690 -93 0
1 3690 63 0
1 3705 -3690 0
1 -3705 -78 0
1 3705 -3706 0
1 3705 -63 0
1 123 3525 0
1 -123 3660 0
1 123 3600 0
1 -123 -3510 0
1 -123 -3675 0
1 -138 -3660 0
1 138 3630 0
1 138 3600 0
1 138 3510 0
1 138 123 0
1 138 3645 0
1 138 -3615 0
1 153 3585 0
1 153 -168 0
1 153 3630 0
1 -153 -3600 0
1 153 3510 0
1 153 152 0
1 -153 -3675 0
1 153 3645 0
1 -168 3525 0
1 -168 -167 0
1 -168 3660 0
1 168 3630 0
1 168 -3540 0
1 -168 -3675 0
1 3600 -243 0
1 3600 -183 0
1 3600 153 0
1 3600 123 0
1 3600 -93 0
1 -3615 -258 0
1 -3615 228 0
1 3615 -168 0
1 -3615 -108 0
1 3615 -3600 0
1 3615 213 0
1 -3615 -183 0
1 3615 -93 0
1 -3630 -258 0
1 -3630 168 0
1 3630 -3631 0
1 3630 -153 0
1 -3630 -93 0
1 -3645 258 0
1 -3645 -138 0
1 -3645 243 0
1 -3645 -123 0
1 -3645 -93 0
1 183 198 0
1 -183 3570 0
1 -183 3540 0
1 183 -182 0
1 183 3450 0
1 -198 3555 0
1 -198 -197 0
1 -198 -3465 0
1 -198 3540 0
1 213 -3555 0
1 213 -212 0
1 -213 -3511 0
1 -213 3481 0
1 -213 3450 0
1 213 -3615 0
1 228 3585 0
1 -228 3496 0
1 -228 -3465 0
1 228 3511 0
1 228 3481 0
1 228 3450 0
1 228 -3615 0
1 -3540 257 0
1 -3540 3555 0
1 -3540 228 0
1 3540 -198 0
1 3540 -168 0
1 -3540 -303 0
1 3540 -183 0
1 3540 153 0
1 -3540 -287 0
1 -3555 -198 0
1 3555 303 0
1 -3555 -242 0
1 -3555 3540 0
1 -3555 -213 0
1 3555 183 0
1 -3555 318 0
1 -3570 288 0
1 -3570 258 0
1 3570 198 0
1 -3570 168 0
1 3570 303 0
1 -3570 -243 0
1 -3570 153 0
1 3585 -258 0
1 -3585 -3586 0
1 3585 303 0
1 3585 273 0
1 -3585 3570 0
1 3585 183 0
1 -3585 -153 0
1 242 -3465 0
1 242 3435 0
1 -242 -241 0
1 242 -3540 0
1 242 3511 0
1 242 -3481 0
1 257 -256 0
1 -257 -3555 0
1 -257 -3526 0
1 257 3496 0
1 -257 -3435 0
1 -257 3540 0
1 -257 3390 0
1 -272 -3526 0
1 -272 3496 0
1 272 3436 0
1 272 3405 0
1 272 271 0
1 -272 3540 0
1 272 3421 0
1 -272 287 0
1 287 -3496 0
1 -287 3466 0
1 287 3405 0
1 -287 -3481 0
1 -287 3421 0
1 287 286 0
1 3481 -228 0
1 -3481 -363 0
1 -3481 -3482 0
1 3481 -272 0
1 -3481 378 0
1 -3481 317 0
1 3496 257 0
1 3496 228 0
1 -3496 363 0
1 -3496 -302 0
1 3496 242 0
1 -3496 -213 0
1 -3496 -3481 0
1 3496 -347 0
1 3511 -228 0
1 -3511 -3526 0
1 3511 363 0
1 -3511 -242 0
1 3511 213 0
1 -3511 -3512 0
1 3511 -348 0
1 3511 287 0
1 -3526 257 0
1 -3526 -228 0
1 3526 303 0
1 -3526 213 0
1 -3526 -378 0
1 -3526 -318 0
1 -302 3331 0
1 -302 3496 0
1 -302 -301 0
1 -302 303 0
1 302 3375 0
1 302 -3346 0
1 302 3421 0
1 -302 3390 0
1 317 3360 0
1 -317 -3436 0
1 317 -3405 0
1 317 -302 0
1 -317 3375 0
1 317 3421 0
1 317 -318 0
1 -332 3331 0
1 332 3466 0
1 332 331 0
1 -332 -3421 0
1 332 -3391 0
1 -347 -3331 0
1 -347 3496 0
1 347 -332 0
1 -347 -3436 0
1 -347 -3406 0
1 -347 -3346 0
1 -347 3481 0
1 347 -3451 0
1 347 348 0
1 347 3421 0
1 3421 302 0
1 -3421 -377 0
1 -3421 347 0
1 -3421 -317 0
1 -3421 -3422 0
1 3436 3435 0
1 3436 272 0
1 -3436 377 0
1 -3436 -347 0
1 -3436 3421 0
1 3451 393 0
1 3451 -3466 0
1 -3451 302 0
1 3451 408 0
1 -3466 422 0
1 3466 393 0
1 3466 363 0
1 3466 332 0
1 -3466 378 0
1 3466 317 0
1 -3466 287 0
1 -362 3331 0
1 362 3271 0
1 362 3346 0
1 362 3286 0
1 -362 -377 0
1 377 3361 0
1 -377 3331 0
1 -377 -3271 0
1 -377 -3406 0
1 -377 3376 0
1 377 3346 0
1 -377 -378 0
1 -377 3391 0
1 -392 3376 0
1 392 407 0
1 392 3421 0
1 407 -3361 0
1 407 3332 0
1 -407 -3302 0
1 407 392 0
1 407 3347 0
1 -407 -406 0
1 -407 3391 0
1 -3361 -3360 0
1 3361 -482 0
1 3361 -392 0
1 -3361 -436 0
1 3361 -407 0
1 -3361 377 0
1 3376 451 0
1 -3376 -421 0
1 -3376 -362 0
1 3376 -332 0
1 3376 -497 0
1 3376 466 0
1 3376 436 0
1 -3376 407 0
1 3376 377 0
1 -3376 347 0
1 3391 482 0
1 -3391 -452 0
1 -3391 -422 0
1 -3391 392 0
1 3391 -362 0
1 -3391 -437 0
1 3391 -3390 0
1 3406 -452 0
1 -3406 362 0
1 -3406 -3407 0
1 -3406 -467 0
1 -3406 437 0
1 -3406 377 0
1 421 -3361 0
1 -421 420 0
1 -421 3332 0
1 421 -422 0
1 421 3302 0
1 -421 -3376 0
1 421 436 0
1 421 3317 0
1 421 3286 0
1 -421 -3256 0
1 421 -3226 0
1 -436 3361 0
1 -436 3302 0
1 -436 -3241 0
1 -436 3286 0
1 436 3256 0
1 451 -3361 0
1 -451 -450 0
1 451 452 0
1 451 3332 0
1 451 -3242 0
1 451 3211 0
1 451 -3376 0
1 466 -451 0
1 466 3376 0
1 466 467 0
1 466 3226 0
1 3302 481 0
1 -3302 451 0
1 -3302 -3301 0
1 -3302 3303 0
1 3302 -392 0
1 3302 -557 0
1 3302 -3317 0
1 3317 -481 0
1 -3317 421 0
1 -3317 557 0
1 -3317 466 0
1 3317 436 0
1 -3317 -3318 0
1 3317 -511 0
1 -3332 -421 0
1 3332 -3333 0
1 3332 -392 0
1 -3332 -557 0
1 -3332 527 0
1 -3332 497 0
1 3347 482 0
1 3347 421 0
1 3347 466 0
1 3347 -3346 0
1 -3347 -436 0
1 -481 -482 0
1 481 -3272 0
1 -481 3242 0
1 -481 3211 0
1 481 3181 0
1 481 -3317 0
1 481 3257 0
1 -481 3226 0
1 -496 -481 0
1 496 3211 0
1 496 -3181 0
1 496 495 0
1 -496 -497 0
1 -496 -3317 0
1 496 -3287 0
1 -496 3257 0
1 496 3196 0
1 511 512 0
1 511 3302 0
1 -511 -3272 0
1 -511 -3182 0
1 511 -3287 0
1 -511 -3197 0
1 511 510 0
1 526 3302 0
1 -526 3242 0
1 526 511 0
1 -526 -3152 0
1 -526 -3317 0
1 -526 3287 0
1 -526 -3257 0
1 -526 -3197 0
1 3242 -3241 0
1 -3242 -3243 0
1 -3242 -466 0
1 -3242 -601 0
1 -3242 541 0
1 -3242 -511 0
1 -3257 481 0
1 3257 451 0
1 3257 -586 0
1 -3257 3242 0
1 3257 526 0
1 3257 496 0
1 -3257 -601 0
1 -3257 3258 0
1 3257 -571 0
1 3257 -541 0
1 3272 481 0
1 -3272 -3271 0
1 -3272 -616 0
1 -3272 3273 0
1 -3272 557 0
1 -3272 526 0
1 -3272 466 0
1 -3272 3287 0
1 -3272 -601 0
1 -3272 -572 0
1 3287 616 0
1 -3287 3272 0
1 3287 -587 0
1 3287 -496 0
1 -3287 466 0
1 -3287 -3286 0
1 3287 -601 0
1 -541 3212 0
1 541 3092 0
1 -541 3257 0
1 -541 540 0
1 -541 -3197 0
1 -541 3167 0
1 -556 -555 0
1 -556 -3212 0
1 -556 -3182 0
1 556 3152 0
1 -556 3092 0
1 556 -3227 0
1 -556 541 0
1 556 -3167 0
1 571 -3168 0
1 -571 3107 0
1 -571 3242 0
1 -571 -3212 0
1 571 3153 0
1 571 3257 0
1 -571 570 0
1 571 572 0
1 -586 -3138 0
1 -586 585 0
1 -586 3212 0
1 -586 -3182 0
1 586 3123 0
1 586 571 0
1 -3182 -676 0
1 3182 645 0
1 3182 556 0
1 -3182 -3181 0
1 -3182 -3183 0
1 3182 -600 0
1 3182 -541 0
1 -3197 -586 0
1 3197 556 0
1 -3197 600 0
1 3197 571 0
1 3197 3196 0
1 -3197 541 0
1 3197 3198 0
1 3212 676 0
1 3212 616 0
1 3212 -3211 0
1 3212 526 0
1 -3212 -3227 0
1 -3227 -556 0
1 3227 -3212 0
1 -3227 -3226 0
1 -3227 571 0
1 3227 3228 0
1 -3227 -541 0
1 -3227 511 0
1 -600 -3168 0
1 -600 3107 0
1 600 -3182 0
1 600 3153 0
1 600 3092 0
1 -600 -3062 0
1 600 601 0
1 -600 -3197 0
1 -615 3168 0
1 615 -3047 0
1 615 3182 0
1 -630 3168 0
1 -630 3078 0
1 630 -3047 0
1 -630 -631 0
1 -630 3182 0
1 -630 -3123 0
1 645 -3138 0
1 645 -3047 0
1 645 -3078 0
1 645 3153 0
1 645 -630 0
1 645 -3063 0
1 -645 -3197 0
1 3123 736 0
1 3123 705 0
1 -3123 721 0
1 -3123 -690 0
1 -3123 600 0
1 -3123 571 0
1 3138 736 0
1 3138 -705 0
1 3138 675 0
1 -3138 -615 0
1 3138 586 0
1 -3138 -690 0
1 3138 660 0
1 -3138 -600 0
1 3138 -571 0
1 -3153 736 0
1 3153 706 0
1 -3153 -676 0
1 -3153 -615 0
1 -3153 -721 0
1 3153 -691 0
1 3153 661 0
1 -3153 -571 0
1 -3168 -736 0
1 -3168 -676 0
1 3168 615 0
1 3168 -571 0
1 -660 3138 0
1 660 3078 0
1 -660 -3047 0
1 -660 -3123 0
1 -660 3032 0
1 -675 -3108 0
1 -675 3078 0
1 675 -3047 0
1 675 3123 0
1 -675 660 0
1 675 3063 0
1 675 3002 0
1 690 705 0
1 -690 3138 0
1 -690 3048 0
1 -690 -3123 0
1 -690 3063 0
1 -705 -706 0
1 -705 -3138 0
1 705 3108 0
1 -705 -3048 0
1 -705 3018 0
1 -705 -690 0
1 705 -3123 0
1 -705 3093 0
1 -705 -3003 0
1 -3063 -675 0
1 -3063 -645 0
1 -3063 -750 0
1 3063 -690 0
1 -3063 3062 0
1 -3063 -735 0
1 -3078 675 0
1 3078 -3077 0
1 3078 -720 0
1 3078 -630 0
1 3078 -3063 0
1 3078 735 0
1 -3093 675 0
1 3093 -721 0
1 3093 660 0
1 -3093 630 0
1 3108 705 0
1 -3108 -3107 0
1 3108 751 0
1 -3108 660 0
1 3108 -630 0
1 720 -3048 0
1 720 3003 0
1 -735 3078 0
1 -750 -3078 0
1 750 3048 0
1 750 -3018 0
1 750 3063 0
1 -750 -3033 0
1 750 3003 0
1 765 3078 0
1 -765 3048 0
1 765 -3063 0
1 765 -3033 0
1 765 766 0
1 -3003 3018 0
1 -3003 -750 0
1 -3003 -765 0
1 3003 -735 0
1 3018 750 0
1 3018 720 0
1 -3018 765 0
1 -3018 -735 0
1 -3033 -705 0
1 -3033 3048 0
1 3033 750 0
1 3033 -720 0
1 3033 690 0
1 3033 -735 0
1 3048 3047 0
1 -3048 750 0
1 -3048 720 0
1 3048 3033 0
1 243 3585 0
1 243 258 0
1 -243 -3600 0
1 243 -242 0
1 -243 3706 0
1 243 3676 0
1 258 -257 0
1 258 3585 0
1 258 -243 0
1 -273 -288 0
1 -273 -3616 0
1 -273 3661 0
1 -273 272 0
1 -273 -3601 0
1 273 3570 0
1 -273 -3706 0
1 -273 3646 0
1 288 -3616 0
1 288 3691 0
1 -288 3661 0
1 288 -273 0
1 288 3601 0
1 288 3676 0
1 -288 -287 0
1 3661 -288 0
1 3661 258 0
1 -3661 333 0
1 3661 3660 0
1 3661 3662 0
1 -3661 -243 0
1 3661 3676 0
1 -3676 -258 0
1 3676 333 0
1 3676 243 0
1 -3676 -348 0
1 -3676 -3677 0
1 -3691 288 0
1 3691 273 0
1 -3691 -243 0
1 3706 -3707 0
1 3706 3705 0
1 -303 3555 0
1 303 -3661 0
1 303 3631 0
1 303 -3601 0
1 -303 -3676 0
1 303 -318 0
1 -318 -3526 0
1 -318 303 0
1 -318 3631 0
1 318 3601 0
1 318 -3646 0
1 -333 3586 0
1 333 3661 0
1 -333 3601 0
1 -333 3571 0
1 348 3616 0
1 -348 3586 0
1 348 3556 0
1 348 -3526 0
1 348 -333 0
1 348 3631 0
1 348 3601 0
1 348 3571 0
1 -348 3511 0
1 348 3676 0
1 -348 3646 0
1 -3601 3616 0
1 -3601 423 0
1 3601 -333 0
1 3601 -303 0
1 3601 438 0
1 3616 -288 0
1 3616 3617 0
1 -3616 -423 0
1 -3616 273 0
1 3616 -318 0
1 3631 288 0
1 -3631 423 0
1 -3631 -333 0
1 3631 -3630 0
1 3646 288 0
1 -3646 348 0
1 3646 318 0
1 3646 -3647 0
1 -363 -3586 0
1 363 3556 0
1 -363 -3526 0
1 -363 3496 0
1 -363 362 0
1 363 -3466 0
1 -363 -3601 0
1 -363 -378 0
1 363 -3451 0
1 -378 -3616 0
1 378 -3556 0
1 -378 -3496 0
1 378 363 0
1 -378 3571 0
1 378 -3511 0
1 -393 -3616 0
1 393 3556 0
1 393 3527 0
1 -393 3466 0
1 393 3571 0
1 -393 -3541 0
1 408 3616 0
1 -408 3466 0
1 408 407 0
1 -408 -3482 0
1 -408 -3451 0
1 -3541 483 0
1 3541 -393 0
1 3541 -363 0
1 3541 -498 0
1 3541 -3540 0
1 -3541 -437 0
1 -3541 348 0
1 -3556 -483 0
1 -3556 452 0
1 3556 -3555 0
1 -3556 422 0
1 3556 -393 0
1 -3556 -363 0
1 -3556 498 0
1 3556 437 0
1 3556 408 0
1 3571 453 0
1 -3571 -333 0
1 3571 -3570 0
1 3571 468 0
1 3571 -438 0
1 -3571 -408 0
1 3571 -378 0
1 -3571 -348 0
1 -3586 3585 0
1 -3586 3587 0
1 3586 -423 0
1 3586 -393 0
1 3586 -363 0
1 -3586 333 0
1 3586 468 0
1 3586 -378 0
1 -3586 -348 0
1 422 3556 0
1 422 421 0
1 422 423 0
1 -422 3527 0
1 -422 -3497 0
1 -422 -3466 0
1 422 -3436 0
1 422 3512 0
1 422 3421 0
1 422 3391 0
1 437 3556 0
1 -437 422 0
1 -437 -3497 0
1 -437 3466 0
1 437 -3512 0
1 -437 3391 0
1 -452 -3556 0
1 -452 453 0
1 452 3527 0
1 -452 -3467 0
1 -452 3437 0
1 -452 3406 0
1 452 -467 0
1 -452 3541 0
1 467 3406 0
1 467 -466 0
1 -467 3541 0
1 -467 3482 0
1 -467 3391 0
1 3482 -452 0
1 3482 -422 0
1 3482 -393 0
1 -3482 558 0
1 3482 -497 0
1 3482 437 0
1 3482 3481 0
1 3497 -482 0
1 -3497 3496 0
1 3497 -393 0
1 3497 -3498 0
1 3497 -527 0
1 -3497 -497 0
1 3497 467 0
1 3497 -437 0
1 3497 -3482 0
1 3512 513 0
1 3512 422 0
1 3512 -467 0
1 3512 -408 0
1 3512 -3513 0
1 3512 -543 0
1 3527 452 0
1 -3527 -422 0
1 3527 3526 0
1 -3527 -393 0
1 3527 558 0
1 -3527 408 0
1 -482 -3361 0
1 -482 -3437 0
1 -482 3376 0
1 482 3347 0
1 -482 -3482 0
1 497 -3361 0
1 -497 -3467 0
1 497 3406 0
1 497 -496 0
1 497 -3376 0
1 -497 -3347 0
1 -497 -3482 0
1 -497 -3452 0
1 -497 3422 0
1 -512 -3392 0
1 -512 -513 0
1 512 3497 0
1 512 3437 0
1 -512 -527 0
1 -512 3407 0
1 512 -3377 0
1 512 3347 0
1 -512 -3422 0
1 527 3362 0
1 -527 -3467 0
1 527 -3437 0
1 527 -526 0
1 -527 -3407 0
1 -527 -3347 0
1 527 3482 0
1 -527 -3452 0
1 527 -3422 0
1 -3422 -512 0
1 3422 482 0
1 3422 -452 0
1 3422 587 0
1 3422 -557 0
1 -3422 -527 0
1 -3437 512 0
1 -3437 482 0
1 -3437 -452 0
1 3437 617 0
1 -3437 -3436 0
1 3437 -527 0
1 -3437 497 0
1 3437 -467 0
1 3437 -602 0
1 -3437 3422 0
1 3452 512 0
1 3452 -3467 0
1 3452 588 0
1 3452 -558 0
1 3452 -527 0
1 3452 -497 0
1 -3452 3451 0
1 -3467 -512 0
1 -3467 -482 0
1 3467 -3466 0
1 3467 588 0
1 3467 -558 0
1 3467 -527 0
1 -3467 -467 0
1 -557 -3392 0
1 -557 3332 0
1 -557 3302 0
1 -557 3272 0
1 557 556 0
1 -557 558 0
1 -557 3377 0
1 557 -3347 0
1 -572 -587 0
1 -572 -3437 0
1 -572 3422 0
1 -587 -3377 0
1 587 3318 0
1 587 3287 0
1 3362 -512 0
1 3362 -3361 0
1 3362 3363 0
1 3362 -677 0
1 -3362 -646 0
1 -3362 -616 0
1 -3362 587 0
1 3362 -662 0
1 -3377 -512 0
1 -3377 -3362 0
1 -3377 646 0
1 3377 -587 0
1 -3377 -3376 0
1 -3377 -3378 0
1 -3377 -601 0
1 -3392 -677 0
1 3392 -647 0
1 3392 617 0
1 -3392 557 0
1 3392 -3407 0
1 -3392 662 0
1 3392 632 0
1 3392 -602 0
1 3407 -512 0
1 3407 3392 0
1 -3407 677 0
1 3407 -647 0
1 3407 587 0
1 -3407 -557 0
1 -3407 527 0
1 -3407 -3408 0
1 601 3362 0
1 -601 -3333 0
1 -601 616 0
1 -601 -3272 0
1 601 -3242 0
1 601 3377 0
1 601 -600 0
1 601 -3257 0
1 -601 602 0
1 601 -3227 0
1 616 -3362 0
1 -616 3257 0
1 616 -3272 0
1 616 617 0
1 616 -3242 0
1 616 -3377 0
1 616 3348 0
1 -616 -3287 0
1 616 -601 0
1 -616 3227 0
1 631 -646 0
1 -631 -3303 0
1 -631 3273 0
1 631 -3243 0
1 -631 -3212 0
1 631 -3348 0
1 -631 -632 0
1 646 3362 0
1 -646 645 0
1 646 -3333 0
1 646 -647 0
1 -646 3303 0
1 -646 -3212 0
1 -646 -3377 0
1 646 3258 0
1 -3303 -3302 0
1 3303 -616 0
1 -3303 587 0
1 3303 -691 0
1 3303 631 0
1 -3303 572 0
1 -3318 676 0
1 3318 -646 0
1 3318 3303 0
1 -3318 -661 0
1 3318 -3317 0
1 3318 572 0
1 -3333 -737 0
1 3333 707 0
1 -3333 -3332 0
1 3333 -677 0
1 3333 646 0
1 -3333 631 0
1 3333 572 0
1 3348 737 0
1 -3348 -3333 0
1 -3348 -616 0
1 -3348 587 0
1 -3348 601 0
1 -661 3273 0
1 661 3212 0
1 661 -3153 0
1 661 3318 0
1 661 -3258 0
1 -661 3227 0
1 -676 -3168 0
1 -676 -675 0
1 676 -3303 0
1 676 3273 0
1 -676 3243 0
1 -676 3212 0
1 676 -661 0
1 -676 -3288 0
1 691 3168 0
1 -691 -706 0
1 691 -3243 0
1 691 -3213 0
1 691 3183 0
1 -691 3153 0
1 691 690 0
1 -691 692 0
1 -691 -3318 0
1 691 3288 0
1 691 3228 0
1 -691 3198 0
1 706 705 0
1 706 -3303 0
1 706 3243 0
1 706 3183 0
1 706 3153 0
1 -706 -691 0
1 -706 -3288 0
1 -706 -3258 0
1 706 -3228 0
1 -706 -3198 0
1 3243 -736 0
1 3243 706 0
1 3243 -676 0
1 -3243 -3242 0
1 -3243 751 0
1 3243 691 0
1 3243 -661 0
1 3243 -631 0
1 3258 -676 0
1 3258 -646 0
1 -3258 751 0
1 -3258 -721 0
1 -3258 -3257 0
1 -3273 706 0
1 -3273 676 0
1 3273 752 0
1 -3273 661 0
1 3273 767 0
1 -3288 737 0
1 3288 -676 0
1 3288 -3273 0
1 3288 -752 0
1 3288 691 0
1 3288 -661 0
1 3288 3287 0
1 3288 -767 0
1 721 -3168 0
1 721 -3108 0
1 -721 3213 0
1 -721 -722 0
1 721 3258 0
1 -721 -3228 0
1 -736 -3168 0
1 736 -3138 0
1 736 -3213 0
1 -736 -3183 0
1 -736 721 0
1 -736 3093 0
1 -736 735 0
1 751 -3258 0
1 751 3213 0
1 751 3198 0
1 751 -3228 0
1 -751 -766 0
1 -766 -3243 0
1 766 -3183 0
1 766 -3093 0
1 -766 3258 0
1 -766 3228 0
1 -766 -765 0
1 -3183 736 0
1 3183 3182 0
1 3183 3198 0
1 -3183 -766 0
1 3198 -736 0
1 3198 -751 0
1 -3198 3183 0
1 -3198 721 0
1 -3198 -3197 0
1 -3213 736 0
1 3213 3212 0
1 -3213 -721 0
1 3213 -691 0
1 -3228 736 0
1 3228 -721 0
1 -3228 691 0
1 -423 422 0
1 -423 3692 0
1 423 3571 0
1 423 3707 0
1 438 -3586 0
1 438 -423 0
1 -438 -3707 0
1 -453 -452 0
1 -453 -3692 0
1 -453 3662 0
1 453 3632 0
1 453 3647 0
1 -468 3662 0
1 -468 -3632 0
1 468 467 0
1 -468 -3571 0
1 468 3707 0
1 3662 3661 0
1 -3662 -498 0
1 -3662 468 0
1 3662 -438 0
1 -3677 -513 0
1 3677 -483 0
1 3677 -453 0
1 3677 -3662 0
1 -3677 -3676 0
1 3692 3693 0
1 3692 468 0
1 -3707 -453 0
1 3707 468 0
1 3707 -3708 0
1 483 482 0
1 483 498 0
1 483 3602 0
1 -483 -3541 0
1 483 3677 0
1 -483 3647 0
1 -498 3556 0
1 -498 3527 0
1 498 -3662 0
1 -498 -3632 0
1 498 497 0
1 -498 3571 0
1 498 -3541 0
1 498 3677 0
1 498 -3647 0
1 -513 512 0
1 -513 -3557 0
1 513 -3527 0
1 513 -3662 0
1 513 -528 0
1 -513 3632 0
1 513 3602 0
1 -513 -3512 0
1 -513 -3677 0
1 528 -3617 0
1 -528 -3587 0
1 -528 3557 0
1 -528 3602 0
1 528 -3572 0
1 528 3542 0
1 528 3512 0
1 528 -3677 0
1 -528 -3647 0
1 -3602 -513 0
1 3602 -483 0
1 -3602 -618 0
1 3602 -588 0
1 -3602 -528 0
1 3602 -3601 0
1 3602 -498 0
1 -3602 -3603 0
1 -3602 -468 0
1 -3602 573 0
1 -3602 543 0
1 3617 3616 0
1 3617 -513 0
1 3617 453 0
1 3617 -618 0
1 3617 -3602 0
1 3617 468 0
1 3617 603 0
1 -3632 453 0
1 -3632 618 0
1 -3632 -528 0
1 3632 3631 0
1 -3632 498 0
1 -3632 3633 0
1 -3632 603 0
1 -3647 -513 0
1 3647 -453 0
1 -3647 -618 0
1 3647 -528 0
1 -3647 -3632 0
1 -3647 498 0
1 -3647 -468 0
1 543 -3557 0
1 543 3602 0
1 -543 3542 0
1 543 3482 0
1 -558 3617 0
1 558 -3557 0
1 -558 -3527 0
1 -558 3572 0
1 558 -3512 0
1 -558 -543 0
1 573 3498 0
1 -573 -3467 0
1 -573 588 0
1 573 -3602 0
1 -573 -3572 0
1 -573 -3513 0
1 573 -3452 0
1 -588 3587 0
1 588 3557 0
1 -588 -3498 0
1 588 3467 0
1 -588 3513 0
1 3542 3557 0
1 3542 -647 0
1 -3542 588 0
1 -3542 558 0
1 -3542 528 0
1 -3542 3541 0
1 -3542 632 0
1 3542 543 0
1 -3557 678 0
1 3557 -647 0
1 -3557 3558 0
1 -3557 -617 0
1 -3557 558 0
1 3557 3542 0
1 -3557 632 0
1 3557 573 0
1 3572 -3587 0
1 3572 -648 0
1 -3572 618 0
1 -3572 -558 0
1 -3572 3573 0
1 3572 663 0
1 3572 -633 0
1 3572 -603 0
1 3572 543 0
1 -3587 -513 0
1 -3587 -573 0
1 602 -3498 0
1 -602 -3467 0
1 -602 3437 0
1 602 -3407 0
1 602 -3483 0
1 -602 -603 0
1 602 -3422 0
1 -617 -3392 0
1 617 3557 0
1 -617 616 0
1 -617 -618 0
1 617 -3437 0
1 617 -3542 0
1 -617 -3513 0
1 -617 3452 0
1 -632 -3528 0
1 632 631 0
1 -632 -3453 0
1 -647 646 0
1 647 -3528 0
1 647 3513 0
1 -647 3483 0
1 -647 -3453 0
1 647 -3423 0
1 3483 677 0
1 -3483 -647 0
1 3483 617 0
1 3483 -3498 0
1 -3483 588 0
1 -3483 -723 0
1 -3483 692 0
1 -3483 602 0
1 3498 647 0
1 -3498 3497 0
1 -3498 -662 0
1 3498 -3483 0
1 -3513 -738 0
1 -3513 678 0
1 3513 647 0
1 -3513 -3512 0
1 3513 -617 0
1 -3513 588 0
1 3513 632 0
1 -3513 -602 0
1 -3528 -738 0
1 3528 708 0
1 3528 -678 0
1 -3528 647 0
1 -3528 -3527 0
1 3528 -617 0
1 3528 -588 0
1 3528 693 0
1 3528 3513 0
1 -3528 -602 0
1 -3528 573 0
1 -662 -3392 0
1 -662 -3362 0
1 662 3333 0
1 -662 677 0
1 662 -3438 0
1 -662 -3407 0
1 662 -3377 0
1 -662 -3483 0
1 662 -3423 0
1 -677 3392 0
1 677 3362 0
1 677 3438 0
1 -677 -3377 0
1 677 -3483 0
1 677 -3453 0
1 677 3423 0
1 -692 3393 0
1 692 3363 0
1 -692 -3333 0
1 -692 3498 0
1 -692 -3438 0
1 -692 3378 0
1 692 -691 0
1 -692 3348 0
1 692 3483 0
1 -692 3453 0
1 -692 -3423 0
1 -707 3393 0
1 707 -706 0
1 -707 -3363 0
1 -707 -3333 0
1 -707 3498 0
1 707 3468 0
1 -707 -3408 0
1 707 -3378 0
1 707 692 0
1 707 -3423 0
1 3423 -707 0
1 3423 677 0
1 -3423 647 0
1 -3423 3438 0
1 3423 692 0
1 3423 662 0
1 3423 632 0
1 -3423 3422 0
1 -3423 767 0
1 3438 -737 0
1 3438 -707 0
1 3438 -647 0
1 3438 -692 0
1 -3438 -662 0
1 3438 -767 0
1 -3453 707 0
1 3453 -753 0
1 3453 -662 0
1 3453 -632 0
1 -3468 768 0
1 3468 -738 0
1 3468 -677 0
1 3468 753 0
1 -3468 -723 0
1 -3468 -632 0
1 -722 -3393 0
1 -722 3333 0
1 722 3303 0
1 -722 -3273 0
1 -722 3438 0
1 -722 -723 0
1 722 -3318 0
1 722 -3288 0
1 722 -3423 0
1 -737 -3393 0
1 737 -3438 0
1 -737 3408 0
1 737 -722 0
1 737 -3318 0
1 -752 -3393 0
1 752 3378 0
1 752 3288 0
1 -752 767 0
1 767 768 0
1 -767 -3363 0
1 767 3273 0
1 767 3438 0
1 3363 737 0
1 -3363 -707 0
1 3363 -692 0
1 -3378 -737 0
1 -3378 707 0
1 -3378 722 0
1 3378 692 0
1 -3393 3392 0
1 -3393 -752 0
1 -3408 737 0
1 3408 -3393 0
1 -3408 692 0
1 -3408 767 0
1 -603 -3587 0
1 -603 -3693 0
1 -603 -3663 0
1 603 -3632 0
1 603 -3602 0
1 603 -3647 0
1 618 -3587 0
1 -618 617 0
1 618 603 0
1 -618 -3647 0
1 633 -3648 0
1 633 -3587 0
1 633 3572 0
1 -648 -3648 0
1 -648 -3618 0
1 -648 647 0
1 -648 -3693 0
1 -648 3663 0
1 648 3633 0
1 -648 3603 0
1 648 -3572 0
1 648 3708 0
1 -3663 708 0
1 3663 678 0
1 -3663 -648 0
1 3663 3678 0
1 3663 663 0
1 -3663 633 0
1 3663 603 0
1 -3678 618 0
1 3678 -3663 0
1 -3678 633 0
1 -3678 603 0
1 3693 648 0
1 -3693 -3692 0
1 3693 633 0
1 -3693 3708 0
1 3708 -648 0
1 3708 618 0
1 -3708 3693 0
1 3708 -633 0
1 -663 3618 0
1 663 3587 0
1 -663 -3557 0
1 663 3603 0
1 663 662 0
1 -663 3542 0
1 663 -3513 0
1 663 3678 0
1 678 -3648 0
1 678 3618 0
1 678 3587 0
1 678 -3557 0
1 678 -3528 0
1 678 -3603 0
1 -678 663 0
1 693 3588 0
1 -693 -3663 0
1 693 -3633 0
1 693 -3603 0
1 -693 -692 0
1 693 -3573 0
1 -693 -3543 0
1 -693 3513 0
1 693 -3678 0
1 -708 707 0
1 708 -3588 0
1 -708 3558 0
1 708 -3663 0
1 708 3573 0
1 -708 -3543 0
1 3603 -648 0
1 -3603 693 0
1 -3603 -663 0
1 -3603 633 0
1 -3618 -3617 0
1 3618 -678 0
1 3618 -648 0
1 3618 -693 0
1 -3618 663 0
1 -3633 3648 0
1 3633 -708 0
1 -3633 -678 0
1 -3648 -708 0
1 -3648 -648 0
1 3648 3633 0
1 3648 -633 0
1 -3648 -3647 0
1 -723 3588 0
1 723 3603 0
1 -723 -3543 0
1 723 -3483 0
1 -738 -3558 0
1 738 -3498 0
1 -738 723 0
1 738 -3483 0
1 738 -3453 0
1 753 -768 0
1 -753 -3618 0
1 -753 -3558 0
1 -753 -3543 0
1 768 3618 0
1 768 -3468 0
1 768 -753 0
1 -768 -3543 0
1 768 -3453 0
1 -768 -767 0
1 3543 768 0
1 -3543 708 0
1 3543 -3558 0
1 3543 -723 0
1 -3543 -3542 0
1 3558 768 0
1 -3558 3557 0
1 3558 753 0
1 -3558 -723 0
1 3558 3543 0
1 3573 -738 0
1 3573 -708 0
1 3573 3588 0
1 3573 753 0
1 3588 -768 0
1 -3588 738 0
1 3588 3587 0
1 -3588 708 0
1 -3588 753 0
1 3588 723 0
1 3588 -693 0
1 3588 -3573 0
